6587
7317
2161
1005
8704
9584
6294
2104
2552
3747
4447
6662
3219
4036
8221
2368
9160
635
716
3500
4706
4794
7733
7502
4393
2343
6062
606
4645
8852
995
7132
9607
4676
8424
5007
4938
821
5396
2007
4500
5704
3720
7470
6157
1048
7589
4323
2624
1793
2014
